sat
(
  (define-fun C5_VM4 () Int
    0)
  (define-fun C2_VM2 () Int
    1)
  (define-fun PriceProv6 () Int
    420)
  (define-fun C1_VM3 () Int
    0)
  (define-fun MemProv5 () Int
    122001)
  (define-fun C2_VM4 () Int
    0)
  (define-fun C5_VM1 () Int
    1)
  (define-fun MemProv6 () Int
    15000)
  (define-fun StorageProv6 () Int
    2000)
  (define-fun C3_VM6 () Int
    1)
  (define-fun C3_VM1 () Int
    0)
  (define-fun StorageProv3 () Int
    2000)
  (define-fun StorageProv4 () Int
    2000)
  (define-fun C4_VM3 () Int
    1)
  (define-fun PriceProv1 () Int
    210)
  (define-fun C5_VM6 () Int
    1)
  (define-fun C1_VM6 () Int
    0)
  (define-fun PriceProv5 () Int
    0)
  (define-fun ProcProv2 () Int
    4)
  (define-fun C5_VM3 () Int
    0)
  (define-fun C5_VM2 () Int
    1)
  (define-fun ProcProv5 () Int
    33)
  (define-fun VM2Type () Int
    341)
  (define-fun VM1Type () Int
    341)
  (define-fun ProcProv4 () Int
    4)
  (define-fun VM4Type () Int
    341)
  (define-fun C2_VM6 () Int
    0)
  (define-fun C3_VM5 () Int
    0)
  (define-fun C3_VM2 () Int
    0)
  (define-fun MemProv1 () Int
    7500)
  (define-fun C5_VM5 () Int
    0)
  (define-fun C2_VM1 () Int
    1)
  (define-fun MemProv4 () Int
    7500)
  (define-fun VM3Type () Int
    252)
  (define-fun C1_VM5 () Int
    0)
  (define-fun C1_VM2 () Int
    0)
  (define-fun VM6Type () Int
    278)
  (define-fun ProcProv6 () Int
    8)
  (define-fun C4_VM4 () Int
    0)
  (define-fun C4_VM1 () Int
    0)
  (define-fun C4_VM6 () Int
    0)
  (define-fun ProcProv1 () Int
    4)
  (define-fun C2_VM5 () Int
    0)
  (define-fun StorageProv1 () Int
    2000)
  (define-fun PriceProv3 () Int
    532)
  (define-fun C4_VM5 () Int
    0)
  (define-fun MemProv2 () Int
    7500)
  (define-fun C3_VM4 () Int
    0)
  (define-fun PriceProv4 () Int
    210)
  (define-fun C1_VM4 () Int
    1)
  (define-fun C3_VM3 () Int
    0)
  (define-fun StorageProv2 () Int
    2000)
  (define-fun MemProv3 () Int
    30000)
  (define-fun C4_VM2 () Int
    0)
  (define-fun C2_VM3 () Int
    0)
  (define-fun VM5Type () Int
    0)
  (define-fun ProcProv3 () Int
    8)
  (define-fun PriceProv2 () Int
    210)
  (define-fun StorageProv5 () Int
    6001)
  (define-fun C1_VM1 () Int
    0)
)
(objectives
 ( 17)
 ((+ 0 PriceProv1 PriceProv2 PriceProv3 PriceProv4 PriceProv5 PriceProv6) 1582)
)
(:added-eqs                   95351
 :arith-eq-adapter            109962
 :arith-bound-propagations-lp 567
 :arith-conflicts             7
 :arith-diseq                 207438
 :arith-fixed-eqs             1531
 :arith-lower                 212265
 :arith-make-feasible         98058
 :arith-max-columns           566
 :arith-max-rows              20
 :arith-upper                 215937
 :binary-propagations         1074534
 :bv-bit2core                 6979
 :bv-dynamic-diseqs           420637
 :bv->core-eq                 1026
 :conflicts                   1996
 :decisions                   352437
 :del-clause                  472749
 :final-checks                20
 :max-memory                  86.68
 :maxsat-cores                3
 :memory                      85.78
 :minimized-lits              484
 :mk-bool-var                 228365
 :mk-clause                   475692
 :mk-clause-binary            14658
 :num-allocs                  1493650506
 :num-checks                  26
 :pb-conflicts                11
 :pb-predicates               18
 :pb-propagations             827
 :pb-resolves                 11
 :propagations                1267149
 :restarts                    14
 :rlimit-count                16108846
 :solve-eqs-elim-vars         1
 :solve-eqs-steps             10
 :time                        1.91
 :total-time                  1.95)
